nN = 8;
nR = 48;
nH = 2;

a = [[24, 19, 21, 15, 19, 19, 20, 23, 22, 23, 22, 23, 17, 25, 17, 22, 25, 20, 20, 18, 18, 23, 17, 17, 25, 16, 24, 25, 18, 24, 15, 17, 15, 19, 25, 20, 18, 24, 19, 16, 24, 19, 19, 21, 21, 18, 20, 17], [23, 18, 24, 17, 20, 19, 20, 20, 21, 25, 25, 15, 17, 21, 19, 19, 16, 19, 24, 19, 24, 20, 25, 16, 23, 18, 18, 15, 25, 22, 25, 22, 19, 20, 16, 24, 22, 17, 19, 24, 17, 16, 20, 16, 17, 18, 21, 17], [21, 18, 16, 24, 15, 19, 15, 16, 25, 21, 22, 16, 22, 17, 22, 19, 23, 20, 17, 16, 17, 19, 21, 21, 18, 23, 21, 22, 23, 17, 16, 18, 20, 17, 23, 25, 23, 16, 25, 17, 17, 15, 25, 19, 22, 24, 25, 21], [25, 22, 15, 17, 16, 21, 21, 16, 18, 24, 17, 19, 19, 24, 21, 23, 16, 18, 20, 23, 22, 24, 23, 19, 17, 21, 19, 21, 15, 19, 22, 20, 23, 23, 23, 18, 25, 23, 17, 22, 18, 16, 21, 24, 24, 16, 21, 24], [20, 25, 17, 19, 24, 15, 15, 20, 20, 16, 20, 15, 22, 15, 22, 16, 24, 24, 15, 23, 24, 20, 15, 19, 21, 23, 21, 18, 15, 25, 21, 19, 23, 17, 16, 20, 15, 16, 24, 25, 24, 19, 16, 22, 25, 15, 23, 21], [15, 21, 15, 20, 24, 20, 18, 16, 17, 17, 24, 20, 20, 23, 25, 20, 23, 17, 23, 15, 21, 23, 24, 24, 25, 19, 17, 24, 20, 19, 20, 15, 17, 23, 22, 18, 24, 23, 20, 19, 19, 21, 25, 19, 20, 18, 22, 17], [19, 23, 20, 15, 22, 22, 21, 19, 19, 16, 17, 19, 15, 18, 21, 23, 18, 24, 16, 24, 25, 19, 18, 22, 21, 23, 23, 22, 15, 21, 25, 25, 19, 24, 23, 16, 20, 19, 25, 21, 20, 20, 17, 25, 20, 25, 22, 22], [21, 17, 21, 16, 25, 20, 17, 18, 20, 17, 18, 16, 22, 23, 15, 21, 25, 24, 20, 23, 21, 25, 22, 20, 24, 19, 20, 24, 23, 19, 23, 16, 19, 18, 17, 18, 21, 24, 18, 21, 15, 18, 21, 21, 20, 16, 19, 18]];
c = [[[0, 0, 0, 0, 0, 0, 0, 0, 0, 0, 0, 0, 0, 0, 0, 0, 0, 0, 0, 0, 0, 0, 0, 0, 0, 0, 0, 0, 0, 0, 0, 0, 0, 0, 0, 0, 0, 0, 0, 0, 0, 0, 0, 0, 0, 0, 0, 0], [35, 31, 37, 31, 49, 30, 38, 43, 50, 40, 49, 48, 41, 38, 32, 36, 46, 49, 39, 46, 40, 47, 33, 39, 44, 49, 47, 33, 30, 31, 37, 36, 32, 37, 33, 39, 30, 31, 46, 38, 38, 40, 30, 49, 41, 38, 32, 45], [40, 45, 31, 38, 49, 37, 41, 50, 47, 32, 32, 42, 47, 39, 44, 37, 46, 41, 31, 42, 38, 46, 38, 39, 47, 45, 37, 32, 30, 36, 39, 42, 44, 41, 48, 39, 45, 43, 48, 37, 38, 38, 31, 40, 41, 38, 37, 48], [37, 35, 33, 49, 40, 30, 38, 34, 40, 30, 37, 49, 37, 37, 36, 44, 40, 45, 33, 33, 41, 41, 42, 43, 50, 40, 37, 30, 42, 46, 43, 36, 34, 35, 34, 49, 40, 40, 50, 34, 31, 31, 40, 38, 40, 32, 50, 31], [47, 49, 32, 31, 49, 37, 32, 34, 45, 35, 47, 37, 35, 36, 39, 44, 39, 35, 50, 46, 37, 39, 49, 30, 44, 46, 49, 31, 48, 41, 50, 38, 42, 37, 50, 30, 43, 30, 43, 42, 46, 34, 35, 48, 40, 39, 48, 31], [35, 35, 44, 37, 40, 32, 39, 46, 46, 41, 46, 30, 47, 36, 49, 45, 39, 45, 32, 46, 49, 46, 49, 40, 39, 47, 46, 36, 49, 40, 42, 47, 34, 39, 41, 30, 31, 40, 38, 41, 47, 39, 34, 30, 30, 38, 34, 43], [49, 46, 31, 36, 46, 41, 38, 47, 38, 45, 32, 34, 44, 50, 32, 37, 45, 33, 46, 35, 36, 43, 37, 30, 39, 41, 30, 30, 49, 50, 31, 42, 44, 34, 48, 31, 43, 32, 34, 38, 35, 30, 44, 43, 36, 45, 44, 43], [37, 37, 41, 48, 50, 48, 33, 30, 36, 34, 33, 36, 31, 48, 47, 37, 42, 39, 35, 38, 34, 42, 40, 44, 35, 34, 39, 31, 30, 35, 30, 35, 43, 50, 47, 50, 49, 36, 42, 39, 40, 49, 34, 31, 50, 47, 50, 50]], [[0, 0, 0, 0, 0, 0, 0, 0, 0, 0, 0, 0, 0, 0, 0, 0, 0, 0, 0, 0, 0, 0, 0, 0, 0, 0, 0, 0, 0, 0, 0, 0, 0, 0, 0, 0, 0, 0, 0, 0, 0, 0, 0, 0, 0, 0, 0, 0], [0, 0, 0, 0, 0, 0, 0, 0, 0, 0, 0, 0, 0, 0, 0, 0, 0, 0, 0, 0, 0, 0, 0, 0, 0, 0, 0, 0, 0, 0, 0, 0, 0, 0, 0, 0, 0, 0, 0, 0, 0, 0, 0, 0, 0, 0, 0, 0], [43, 41, 49, 42, 33, 34, 40, 35, 50, 45, 32, 42, 39, 44, 39, 49, 34, 50, 34, 36, 49, 31, 32, 41, 39, 44, 46, 37, 34, 45, 49, 42, 49, 48, 39, 36, 30, 38, 48, 40, 36, 31, 37, 44, 50, 34, 50, 40], [37, 48, 40, 43, 41, 35, 30, 42, 36, 46, 36, 33, 37, 39, 45, 33, 44, 43, 50, 45, 40, 30, 39, 42, 42, 39, 30, 37, 33, 46, 40, 39, 35, 36, 33, 42, 37, 42, 37, 35, 34, 34, 42, 36, 48, 40, 39, 45], [38, 48, 39, 40, 33, 48, 40, 30, 36, 40, 35, 41, 31, 49, 41, 37, 44, 45, 39, 35, 50, 50, 49, 34, 46, 45, 32, 50, 37, 46, 33, 45, 40, 44, 32, 48, 42, 37, 34, 30, 43, 44, 37, 46, 30, 33, 37, 48], [44, 36, 35, 47, 41, 34, 44, 37, 36, 31, 46, 39, 35, 35, 44, 47, 44, 41, 46, 48, 50, 43, 31, 43, 50, 31, 49, 45, 47, 37, 44, 43, 39, 44, 31, 37, 36, 48, 46, 30, 39, 38, 34, 42, 35, 35, 38, 38], [49, 50, 40, 46, 38, 32, 50, 38, 33, 35, 46, 46, 35, 44, 34, 45, 43, 34, 47, 39, 32, 48, 49, 34, 50, 31, 38, 45, 34, 35, 33, 38, 48, 38, 33, 33, 31, 47, 44, 32, 40, 35, 34, 42, 33, 39, 39, 33], [35, 49, 48, 41, 37, 34, 49, 46, 41, 36, 49, 31, 34, 45, 47, 34, 32, 30, 34, 43, 30, 34, 30, 37, 40, 38, 47, 42, 46, 35, 32, 32, 39, 49, 41, 43, 45, 31, 46, 42, 38, 37, 49, 41, 41, 30, 32, 32]], [[0, 0, 0, 0, 0, 0, 0, 0, 0, 0, 0, 0, 0, 0, 0, 0, 0, 0, 0, 0, 0, 0, 0, 0, 0, 0, 0, 0, 0, 0, 0, 0, 0, 0, 0, 0, 0, 0, 0, 0, 0, 0, 0, 0, 0, 0, 0, 0], [0, 0, 0, 0, 0, 0, 0, 0, 0, 0, 0, 0, 0, 0, 0, 0, 0, 0, 0, 0, 0, 0, 0, 0, 0, 0, 0, 0, 0, 0, 0, 0, 0, 0, 0, 0, 0, 0, 0, 0, 0, 0, 0, 0, 0, 0, 0, 0], [0, 0, 0, 0, 0, 0, 0, 0, 0, 0, 0, 0, 0, 0, 0, 0, 0, 0, 0, 0, 0, 0, 0, 0, 0, 0, 0, 0, 0, 0, 0, 0, 0, 0, 0, 0, 0, 0, 0, 0, 0, 0, 0, 0, 0, 0, 0, 0], [47, 45, 43, 48, 48, 50, 43, 35, 49, 46, 34, 37, 33, 30, 37, 45, 48, 43, 37, 45, 31, 50, 35, 32, 30, 48, 42, 43, 46, 31, 50, 44, 42, 33, 48, 49, 44, 43, 43, 36, 43, 42, 39, 41, 36, 47, 43, 39], [31, 31, 39, 42, 48, 47, 31, 46, 36, 32, 41, 42, 37, 43, 44, 33, 35, 47, 47, 38, 35, 32, 50, 38, 47, 44, 39, 50, 31, 45, 48, 30, 47, 45, 49, 49, 49, 34, 35, 34, 30, 30, 44, 48, 32, 33, 45, 38], [34, 43, 32, 37, 30, 42, 46, 37, 42, 40, 35, 38, 34, 33, 48, 31, 30, 30, 44, 42, 47, 33, 30, 40, 44, 36, 36, 38, 38, 41, 38, 43, 46, 32, 38, 47, 44, 46, 33, 39, 49, 30, 45, 46, 30, 35, 31, 50], [43, 43, 47, 33, 50, 47, 44, 37, 39, 30, 47, 36, 30, 32, 41, 33, 49, 47, 32, 49, 34, 36, 34, 42, 47, 45, 38, 42, 35, 42, 34, 47, 39, 41, 48, 45, 30, 37, 44, 41, 49, 43, 42, 47, 32, 47, 36, 30], [49, 43, 32, 36, 49, 50, 30, 35, 35, 40, 30, 43, 40, 46, 34, 39, 50, 47, 41, 33, 34, 37, 44, 42, 39, 35, 39, 38, 30, 36, 42, 38, 44, 48, 35, 44, 43, 43, 37, 39, 43, 44, 46, 47, 46, 43, 48, 31]], [[0, 0, 0, 0, 0, 0, 0, 0, 0, 0, 0, 0, 0, 0, 0, 0, 0, 0, 0, 0, 0, 0, 0, 0, 0, 0, 0, 0, 0, 0, 0, 0, 0, 0, 0, 0, 0, 0, 0, 0, 0, 0, 0, 0, 0, 0, 0, 0], [0, 0, 0, 0, 0, 0, 0, 0, 0, 0, 0, 0, 0, 0, 0, 0, 0, 0, 0, 0, 0, 0, 0, 0, 0, 0, 0, 0, 0, 0, 0, 0, 0, 0, 0, 0, 0, 0, 0, 0, 0, 0, 0, 0, 0, 0, 0, 0], [0, 0, 0, 0, 0, 0, 0, 0, 0, 0, 0, 0, 0, 0, 0, 0, 0, 0, 0, 0, 0, 0, 0, 0, 0, 0, 0, 0, 0, 0, 0, 0, 0, 0, 0, 0, 0, 0, 0, 0, 0, 0, 0, 0, 0, 0, 0, 0], [0, 0, 0, 0, 0, 0, 0, 0, 0, 0, 0, 0, 0, 0, 0, 0, 0, 0, 0, 0, 0, 0, 0, 0, 0, 0, 0, 0, 0, 0, 0, 0, 0, 0, 0, 0, 0, 0, 0, 0, 0, 0, 0, 0, 0, 0, 0, 0], [47, 32, 33, 38, 33, 46, 49, 43, 35, 46, 41, 41, 38, 38, 45, 47, 31, 39, 45, 31, 42, 33, 46, 32, 41, 42, 40, 33, 42, 49, 31, 35, 48, 47, 39, 39, 43, 42, 44, 50, 42, 47, 50, 45, 34, 42, 43, 45], [49, 50, 33, 37, 36, 43, 31, 43, 49, 49, 39, 38, 35, 40, 38, 38, 42, 33, 38, 44, 41, 48, 46, 39, 31, 32, 43, 43, 46, 48, 44, 39, 37, 44, 32, 39, 38, 37, 45, 32, 45, 42, 32, 36, 30, 48, 34, 46], [42, 45, 46, 45, 37, 39, 33, 35, 38, 30, 37, 39, 35, 41, 42, 40, 42, 30, 38, 45, 32, 44, 33, 32, 50, 49, 45, 45, 48, 40, 33, 42, 32, 32, 39, 31, 50, 35, 49, 40, 38, 45, 49, 34, 31, 35, 31, 32], [42, 40, 44, 35, 32, 44, 35, 47, 43, 44, 48, 42, 38, 34, 38, 41, 44, 33, 37, 42, 36, 48, 33, 39, 37, 44, 33, 50, 38, 49, 35, 34, 30, 38, 44, 38, 45, 45, 45, 31, 46, 49, 34, 49, 30, 50, 34, 43]], [[0, 0, 0, 0, 0, 0, 0, 0, 0, 0, 0, 0, 0, 0, 0, 0, 0, 0, 0, 0, 0, 0, 0, 0, 0, 0, 0, 0, 0, 0, 0, 0, 0, 0, 0, 0, 0, 0, 0, 0, 0, 0, 0, 0, 0, 0, 0, 0], [0, 0, 0, 0, 0, 0, 0, 0, 0, 0, 0, 0, 0, 0, 0, 0, 0, 0, 0, 0, 0, 0, 0, 0, 0, 0, 0, 0, 0, 0, 0, 0, 0, 0, 0, 0, 0, 0, 0, 0, 0, 0, 0, 0, 0, 0, 0, 0], [0, 0, 0, 0, 0, 0, 0, 0, 0, 0, 0, 0, 0, 0, 0, 0, 0, 0, 0, 0, 0, 0, 0, 0, 0, 0, 0, 0, 0, 0, 0, 0, 0, 0, 0, 0, 0, 0, 0, 0, 0, 0, 0, 0, 0, 0, 0, 0], [0, 0, 0, 0, 0, 0, 0, 0, 0, 0, 0, 0, 0, 0, 0, 0, 0, 0, 0, 0, 0, 0, 0, 0, 0, 0, 0, 0, 0, 0, 0, 0, 0, 0, 0, 0, 0, 0, 0, 0, 0, 0, 0, 0, 0, 0, 0, 0], [0, 0, 0, 0, 0, 0, 0, 0, 0, 0, 0, 0, 0, 0, 0, 0, 0, 0, 0, 0, 0, 0, 0, 0, 0, 0, 0, 0, 0, 0, 0, 0, 0, 0, 0, 0, 0, 0, 0, 0, 0, 0, 0, 0, 0, 0, 0, 0], [30, 35, 30, 44, 47, 30, 50, 42, 44, 34, 38, 34, 48, 33, 36, 39, 35, 41, 36, 30, 35, 34, 43, 45, 41, 31, 45, 46, 40, 48, 38, 47, 33, 46, 48, 47, 44, 43, 43, 30, 47, 45, 37, 34, 38, 48, 33, 31], [32, 36, 33, 32, 30, 35, 31, 38, 43, 31, 37, 30, 49, 46, 30, 48, 38, 50, 39, 47, 48, 31, 31, 34, 36, 35, 31, 49, 32, 37, 37, 40, 46, 33, 33, 49, 43, 41, 44, 39, 35, 49, 34, 45, 31, 47, 42, 44], [42, 35, 41, 36, 45, 50, 45, 37, 40, 36, 50, 48, 48, 36, 50, 33, 42, 45, 36, 43, 46, 44, 30, 38, 40, 37, 42, 43, 36, 47, 39, 36, 33, 38, 30, 50, 34, 42, 33, 31, 38, 38, 32, 50, 47, 39, 43, 41]], [[0, 0, 0, 0, 0, 0, 0, 0, 0, 0, 0, 0, 0, 0, 0, 0, 0, 0, 0, 0, 0, 0, 0, 0, 0, 0, 0, 0, 0, 0, 0, 0, 0, 0, 0, 0, 0, 0, 0, 0, 0, 0, 0, 0, 0, 0, 0, 0], [0, 0, 0, 0, 0, 0, 0, 0, 0, 0, 0, 0, 0, 0, 0, 0, 0, 0, 0, 0, 0, 0, 0, 0, 0, 0, 0, 0, 0, 0, 0, 0, 0, 0, 0, 0, 0, 0, 0, 0, 0, 0, 0, 0, 0, 0, 0, 0], [0, 0, 0, 0, 0, 0, 0, 0, 0, 0, 0, 0, 0, 0, 0, 0, 0, 0, 0, 0, 0, 0, 0, 0, 0, 0, 0, 0, 0, 0, 0, 0, 0, 0, 0, 0, 0, 0, 0, 0, 0, 0, 0, 0, 0, 0, 0, 0], [0, 0, 0, 0, 0, 0, 0, 0, 0, 0, 0, 0, 0, 0, 0, 0, 0, 0, 0, 0, 0, 0, 0, 0, 0, 0, 0, 0, 0, 0, 0, 0, 0, 0, 0, 0, 0, 0, 0, 0, 0, 0, 0, 0, 0, 0, 0, 0], [0, 0, 0, 0, 0, 0, 0, 0, 0, 0, 0, 0, 0, 0, 0, 0, 0, 0, 0, 0, 0, 0, 0, 0, 0, 0, 0, 0, 0, 0, 0, 0, 0, 0, 0, 0, 0, 0, 0, 0, 0, 0, 0, 0, 0, 0, 0, 0], [0, 0, 0, 0, 0, 0, 0, 0, 0, 0, 0, 0, 0, 0, 0, 0, 0, 0, 0, 0, 0, 0, 0, 0, 0, 0, 0, 0, 0, 0, 0, 0, 0, 0, 0, 0, 0, 0, 0, 0, 0, 0, 0, 0, 0, 0, 0, 0], [32, 40, 36, 50, 46, 49, 33, 43, 50, 30, 30, 32, 38, 40, 48, 41, 37, 32, 48, 47, 44, 39, 32, 41, 44, 50, 48, 41, 45, 43, 36, 44, 38, 36, 41, 41, 38, 30, 45, 40, 35, 33, 34, 39, 49, 40, 42, 50], [49, 42, 44, 40, 48, 36, 49, 39, 50, 49, 36, 44, 50, 37, 32, 39, 41, 44, 34, 42, 35, 46, 34, 50, 31, 33, 38, 44, 48, 50, 37, 39, 47, 35, 44, 35, 37, 43, 32, 49, 33, 35, 38, 41, 36, 42, 38, 47]], [[0, 0, 0, 0, 0, 0, 0, 0, 0, 0, 0, 0, 0, 0, 0, 0, 0, 0, 0, 0, 0, 0, 0, 0, 0, 0, 0, 0, 0, 0, 0, 0, 0, 0, 0, 0, 0, 0, 0, 0, 0, 0, 0, 0, 0, 0, 0, 0], [0, 0, 0, 0, 0, 0, 0, 0, 0, 0, 0, 0, 0, 0, 0, 0, 0, 0, 0, 0, 0, 0, 0, 0, 0, 0, 0, 0, 0, 0, 0, 0, 0, 0, 0, 0, 0, 0, 0, 0, 0, 0, 0, 0, 0, 0, 0, 0], [0, 0, 0, 0, 0, 0, 0, 0, 0, 0, 0, 0, 0, 0, 0, 0, 0, 0, 0, 0, 0, 0, 0, 0, 0, 0, 0, 0, 0, 0, 0, 0, 0, 0, 0, 0, 0, 0, 0, 0, 0, 0, 0, 0, 0, 0, 0, 0], [0, 0, 0, 0, 0, 0, 0, 0, 0, 0, 0, 0, 0, 0, 0, 0, 0, 0, 0, 0, 0, 0, 0, 0, 0, 0, 0, 0, 0, 0, 0, 0, 0, 0, 0, 0, 0, 0, 0, 0, 0, 0, 0, 0, 0, 0, 0, 0], [0, 0, 0, 0, 0, 0, 0, 0, 0, 0, 0, 0, 0, 0, 0, 0, 0, 0, 0, 0, 0, 0, 0, 0, 0, 0, 0, 0, 0, 0, 0, 0, 0, 0, 0, 0, 0, 0, 0, 0, 0, 0, 0, 0, 0, 0, 0, 0], [0, 0, 0, 0, 0, 0, 0, 0, 0, 0, 0, 0, 0, 0, 0, 0, 0, 0, 0, 0, 0, 0, 0, 0, 0, 0, 0, 0, 0, 0, 0, 0, 0, 0, 0, 0, 0, 0, 0, 0, 0, 0, 0, 0, 0, 0, 0, 0], [0, 0, 0, 0, 0, 0, 0, 0, 0, 0, 0, 0, 0, 0, 0, 0, 0, 0, 0, 0, 0, 0, 0, 0, 0, 0, 0, 0, 0, 0, 0, 0, 0, 0, 0, 0, 0, 0, 0, 0, 0, 0, 0, 0, 0, 0, 0, 0], [30, 42, 39, 45, 35, 43, 49, 46, 44, 43, 35, 35, 31, 45, 47, 49, 44, 30, 33, 39, 34, 40, 35, 35, 47, 32, 46, 34, 32, 32, 32, 37, 40, 33, 33, 46, 36, 50, 48, 46, 50, 34, 38, 46, 41, 43, 48, 39]], [[0, 0, 0, 0, 0, 0, 0, 0, 0, 0, 0, 0, 0, 0, 0, 0, 0, 0, 0, 0, 0, 0, 0, 0, 0, 0, 0, 0, 0, 0, 0, 0, 0, 0, 0, 0, 0, 0, 0, 0, 0, 0, 0, 0, 0, 0, 0, 0], [0, 0, 0, 0, 0, 0, 0, 0, 0, 0, 0, 0, 0, 0, 0, 0, 0, 0, 0, 0, 0, 0, 0, 0, 0, 0, 0, 0, 0, 0, 0, 0, 0, 0, 0, 0, 0, 0, 0, 0, 0, 0, 0, 0, 0, 0, 0, 0], [0, 0, 0, 0, 0, 0, 0, 0, 0, 0, 0, 0, 0, 0, 0, 0, 0, 0, 0, 0, 0, 0, 0, 0, 0, 0, 0, 0, 0, 0, 0, 0, 0, 0, 0, 0, 0, 0, 0, 0, 0, 0, 0, 0, 0, 0, 0, 0], [0, 0, 0, 0, 0, 0, 0, 0, 0, 0, 0, 0, 0, 0, 0, 0, 0, 0, 0, 0, 0, 0, 0, 0, 0, 0, 0, 0, 0, 0, 0, 0, 0, 0, 0, 0, 0, 0, 0, 0, 0, 0, 0, 0, 0, 0, 0, 0], [0, 0, 0, 0, 0, 0, 0, 0, 0, 0, 0, 0, 0, 0, 0, 0, 0, 0, 0, 0, 0, 0, 0, 0, 0, 0, 0, 0, 0, 0, 0, 0, 0, 0, 0, 0, 0, 0, 0, 0, 0, 0, 0, 0, 0, 0, 0, 0], [0, 0, 0, 0, 0, 0, 0, 0, 0, 0, 0, 0, 0, 0, 0, 0, 0, 0, 0, 0, 0, 0, 0, 0, 0, 0, 0, 0, 0, 0, 0, 0, 0, 0, 0, 0, 0, 0, 0, 0, 0, 0, 0, 0, 0, 0, 0, 0], [0, 0, 0, 0, 0, 0, 0, 0, 0, 0, 0, 0, 0, 0, 0, 0, 0, 0, 0, 0, 0, 0, 0, 0, 0, 0, 0, 0, 0, 0, 0, 0, 0, 0, 0, 0, 0, 0, 0, 0, 0, 0, 0, 0, 0, 0, 0, 0], [0, 0, 0, 0, 0, 0, 0, 0, 0, 0, 0, 0, 0, 0, 0, 0, 0, 0, 0, 0, 0, 0, 0, 0, 0, 0, 0, 0, 0, 0, 0, 0, 0, 0, 0, 0, 0, 0, 0, 0, 0, 0, 0, 0, 0, 0, 0, 0]]];

q = [[[7, 107], [10, 125], [13, 114], [9, 108], [12, 106], [5, 124], [11, 124], [8, 109], [8, 114], [5, 118], [16, 120], [8, 107], [6, 107], [10, 120], [7, 116], [9, 125], [10, 119], [5, 121], [8, 121], [15, 118], [6, 120], [14, 124], [8, 111], [13, 110], [9, 123], [9, 114], [6, 122], [16, 105], [16, 109], [13, 117], [15, 109], [13, 110], [16, 123], [10, 116], [7, 107], [13, 117], [5, 111], [7, 120], [7, 122], [5, 117], [8, 106], [13, 112], [10, 116], [10, 105], [7, 119], [10, 114], [15, 110], [15, 125]], [[10, 113], [12, 121], [14, 124], [6, 110], [15, 125], [10, 115], [16, 108], [5, 108], [14, 107], [10, 107], [13, 116], [12, 107], [10, 114], [10, 111], [9, 105], [9, 107], [16, 115], [11, 118], [6, 110], [10, 120], [16, 114], [7, 117], [15, 113], [6, 111], [5, 109], [6, 110], [7, 111], [16, 112], [11, 107], [5, 122], [12, 107], [13, 117], [10, 113], [9, 123], [8, 109], [10, 118], [13, 111], [10, 115], [7, 106], [11, 107], [14, 118], [16, 114], [5, 111], [12, 115], [5, 115], [5, 119], [9, 125], [10, 108]], [[12, 114], [11, 113], [14, 106], [13, 116], [10, 109], [10, 110], [8, 125], [11, 108], [7, 105], [8, 105], [16, 122], [14, 124], [5, 107], [6, 122], [9, 108], [13, 124], [12, 105], [7, 105], [11, 110], [14, 107], [15, 125], [9, 119], [14, 124], [15, 122], [16, 115], [9, 116], [14, 122], [6, 116], [10, 116], [15, 107], [10, 115], [6, 116], [8, 125], [7, 122], [6, 107], [11, 110], [13, 123], [12, 114], [11, 122], [13, 110], [6, 106], [8, 107], [10, 108], [15, 110], [12, 106], [16, 116], [9, 118], [6, 111]], [[11, 106], [16, 114], [5, 117], [7, 124], [11, 105], [7, 117], [16, 109], [6, 117], [8, 125], [6, 106], [12, 113], [11, 106], [7, 105], [14, 114], [7, 114], [5, 122], [14, 114], [11, 116], [6, 118], [11, 118], [16, 107], [15, 105], [5, 106], [5, 122], [11, 114], [10, 121], [11, 120], [16, 118], [11, 119], [15, 123], [12, 118], [8, 110], [6, 111], [8, 115], [6, 105], [13, 119], [13, 116], [10, 120], [8, 121], [13, 123], [11, 105], [14, 120], [9, 114], [7, 114], [10, 109], [9, 125], [13, 115], [14, 107]], [[12, 105], [5, 110], [15, 116], [7, 110], [6, 116], [15, 115], [12, 125], [11, 121], [5, 118], [16, 106], [8, 115], [13, 112], [6, 116], [7, 124], [12, 108], [6, 109], [8, 110], [8, 107], [9, 107], [7, 112], [14, 115], [13, 119], [12, 110], [14, 124], [15, 107], [10, 105], [10, 116], [14, 118], [7, 111], [9, 110], [8, 114], [10, 114], [11, 113], [16, 123], [15, 110], [16, 122], [14, 109], [10, 118], [5, 115], [6, 110], [6, 105], [14, 118], [12, 109], [9, 108], [16, 105], [11, 123], [5, 115], [5, 120]], [[8, 122], [8, 124], [16, 122], [15, 116], [10, 114], [12, 122], [9, 122], [9, 108], [7, 108], [13, 124], [6, 112], [11, 112], [6, 119], [12, 105], [16, 107], [12, 111], [11, 107], [14, 124], [16, 118], [10, 114], [7, 110], [9, 122], [16, 111], [7, 117], [7, 106], [14, 123], [7, 123], [16, 110], [9, 120], [9, 125], [10, 113], [12, 125], [5, 112], [9, 105], [16, 111], [11, 125], [15, 120], [6, 108], [11, 111], [11, 124], [8, 107], [5, 112], [10, 124], [5, 106], [16, 125], [11, 108], [12, 111], [16, 123]], [[15, 117], [7, 120], [8, 107], [15, 113], [13, 111], [8, 111], [6, 109], [16, 121], [11, 117], [15, 121], [10, 112], [6, 115], [14, 121], [16, 118], [10, 107], [5, 106], [16, 110], [10, 124], [10, 106], [5, 112], [13, 124], [11, 117], [15, 105], [16, 106], [14, 124], [8, 106], [7, 107], [7, 120], [16, 114], [5, 106], [5, 112], [16, 115], [5, 108], [16, 112], [16, 105], [12, 112], [16, 125], [13, 107], [13, 115], [11, 116], [13, 106], [9, 121], [7, 114], [9, 123], [10, 121], [15, 121], [7, 121], [10, 106]], [[10, 110], [9, 111], [16, 105], [6, 116], [9, 108], [8, 122], [9, 113], [15, 112], [12, 111], [13, 109], [13, 114], [14, 109], [9, 119], [13, 124], [16, 119], [8, 114], [13, 114], [14, 124], [14, 120], [11, 125], [13, 119], [16, 114], [16, 106], [14, 114], [8, 115], [10, 105], [5, 124], [13, 117], [5, 123], [5, 117], [11, 105], [12, 118], [15, 106], [12, 110], [14, 120], [16, 117], [7, 121], [15, 107], [6, 124], [11, 115], [11, 112], [11, 118], [12, 113], [15, 119], [7, 109], [16, 123], [8, 121], [11, 118]]];
Q = [[47, 554], [49, 544], [51, 548], [49, 551], [49, 545], [51, 555], [53, 547], [54, 553]];
